
Gurobi 7.5.2 (linux64) logging started Sat Jun 23 17:06:33 2018

Changed value of parameter LogFile to result/ilp/simNo_3-n_100-m_40-s_4-minVAF_0.05-cov_2000-k_2-fn_0.10-fp_0.0001-na_0.15.ILP.gurobiSolverLog
   Prev: gurobi.log  Default: 
Changed value of parameter TimeLimit to 86400.0
   Prev: 1e+100  Min: 0.0  Max: 1e+100  Default: 1e+100
Optimize a model with 1265601 rows, 330440 columns and 3489120 nonzeros
Variable types: 0 continuous, 330440 integer (330440 binary)
Coefficient statistics:
  Matrix range     [2e-03, 3e+00]
  Objective range  [4e-01, 9e+00]
  Bounds range     [1e+00, 1e+00]
  RHS range        [2e-01, 2e+00]
Found heuristic solution: objective -14602.56411
Presolve removed 340717 rows and 215165 columns (presolve time = 7s) ...
Presolve removed 341187 rows and 215165 columns (presolve time = 10s) ...
Presolve removed 341187 rows and 215165 columns (presolve time = 15s) ...
Presolve removed 341187 rows and 215165 columns (presolve time = 20s) ...
Presolve removed 341187 rows and 215165 columns (presolve time = 25s) ...
Presolve removed 341187 rows and 215165 columns (presolve time = 30s) ...
Presolve removed 341187 rows and 215165 columns (presolve time = 35s) ...
Presolve removed 341187 rows and 215165 columns (presolve time = 43s) ...
Presolve removed 341187 rows and 215165 columns (presolve time = 45s) ...
Presolve removed 341187 rows and 215165 columns
Presolve time: 45.11s
Presolved: 924414 rows, 115275 columns, 2562876 nonzeros
Variable types: 0 continuous, 115275 integer (115275 binary)
Presolved: 115275 rows, 1039689 columns, 2678151 nonzeros

Presolve removed 115275 rows and 1039689 columns

Root simplex log...

Iteration    Objective       Primal Inf.    Dual Inf.      Time
       0    1.4649908e+01   0.000000e+00   9.619600e+04     56s
   11472   -1.9294072e+02   0.000000e+00   3.625625e+04     60s
   14766   -2.0969196e+02   0.000000e+00   0.000000e+00     64s
   14766   -2.0969196e+02   0.000000e+00   0.000000e+00     66s

Root relaxation: objective -2.096920e+02, 14766 iterations, 18.06 seconds
Total elapsed time = 105.61s
Total elapsed time = 125.97s
Total elapsed time = 146.77s

    Nodes    |    Current Node    |     Objective Bounds      |     Work
 Expl Unexpl |  Obj  Depth IntInf | Incumbent    BestBd   Gap | It/Node Time

     0     0 -209.69196    0  992 -14602.564 -209.69196  98.6%     -  159s
H    0     0                    -9832.626529 -209.69196  97.9%     -  177s
H    0     0                    -325.4926536 -209.69196  35.6%     -  178s
H    0     0                    -266.1894718 -209.69196  21.2%     -  179s
     0     0 -213.02197    0  966 -266.18947 -213.02197  20.0%     -  200s
H    0     0                    -259.5305307 -213.02197  17.9%     -  217s
     0     0 -214.95144    0 1112 -259.53053 -214.95144  17.2%     -  259s
H    0     0                    -250.5495858 -214.95144  14.2%     -  272s
     0     0 -214.95144    0 1117 -250.54959 -214.95144  14.2%     -  287s
     0     0 -217.17109    0 1118 -250.54959 -217.17109  13.3%     -  313s
     0     0 -217.17109    0 1120 -250.54959 -217.17109  13.3%     -  334s
     0     0 -220.15836    0  931 -250.54959 -220.15836  12.1%     -  361s
     0     0 -220.17552    0  989 -250.54959 -220.17552  12.1%     -  381s
     0     0 -220.18410    0  911 -250.54959 -220.18410  12.1%     -  393s
     0     0 -220.18410    0  905 -250.54959 -220.18410  12.1%     -  404s
     0     0 -222.37728    0  966 -250.54959 -222.37728  11.2%     -  432s
     0     0 -222.52587    0  912 -250.54959 -222.52587  11.2%     -  455s
     0     0 -222.73021    0  965 -250.54959 -222.73021  11.1%     -  469s
     0     0 -222.74687    0  963 -250.54959 -222.74687  11.1%     -  482s
     0     0 -222.74687    0  966 -250.54959 -222.74687  11.1%     -  493s
     0     0 -223.57797    0  955 -250.54959 -223.57797  10.8%     -  524s
     0     0 -223.58017    0  877 -250.54959 -223.58017  10.8%     -  547s
     0     0 -223.58017    0  886 -250.54959 -223.58017  10.8%     -  558s
     0     0 -223.82128    0  897 -250.54959 -223.82128  10.7%     -  582s
     0     0 -223.94678    0  967 -250.54959 -223.94678  10.6%     -  606s
     0     0 -224.00593    0  966 -250.54959 -224.00593  10.6%     -  618s
     0     0 -224.02060    0  971 -250.54959 -224.02060  10.6%     -  631s
     0     0 -224.02060    0  973 -250.54959 -224.02060  10.6%     -  640s
     0     0 -224.77087    0 1020 -250.54959 -224.77087  10.3%     -  665s
     0     0 -224.84127    0 1016 -250.54959 -224.84127  10.3%     -  688s
     0     0 -224.85865    0 1026 -250.54959 -224.85865  10.3%     -  697s
     0     0 -224.88140    0 1029 -250.54959 -224.88140  10.2%     -  710s
     0     0 -224.88245    0 1034 -250.54959 -224.88245  10.2%     -  719s
     0     0 -225.14699    0 1043 -250.54959 -225.14699  10.1%     -  739s
     0     0 -225.56172    0 1016 -250.54959 -225.56172  10.0%     -  759s
     0     0 -225.68517    0 1052 -250.54959 -225.68517  9.92%     -  772s
     0     0 -225.75516    0 1032 -250.54959 -225.75516  9.90%     -  785s
     0     0 -225.75516    0 1031 -250.54959 -225.75516  9.90%     -  794s
     0     0 -226.64946    0 1049 -250.54959 -226.64946  9.54%     -  824s
     0     0 -227.33864    0 1021 -250.54959 -227.33864  9.26%     -  855s
     0     0 -227.63103    0 1053 -250.54959 -227.63103  9.15%     -  870s
     0     0 -227.63103    0 1056 -250.54959 -227.63103  9.15%     -  879s
     0     0 -228.98832    0  977 -250.54959 -228.98832  8.61%     -  901s
     0     0 -229.48799    0  979 -250.54959 -229.48799  8.41%     -  923s
     0     0 -229.55028    0 1000 -250.54959 -229.55028  8.38%     -  935s
     0     0 -229.55028    0 1001 -250.54959 -229.55028  8.38%     -  943s
     0     0 -229.55669    0 1056 -250.54959 -229.55669  8.38%     -  965s
     0     0 -229.80174    0 1072 -250.54959 -229.80174  8.28%     -  985s
     0     0 -229.80174    0 1077 -250.54959 -229.80174  8.28%     -  996s
     0     0 -231.59465    0  923 -250.54959 -231.59465  7.57%     - 1019s
     0     0 -231.59492    0  858 -250.54959 -231.59492  7.57%     - 1036s
     0     0 -233.29977    0  740 -250.54959 -233.29977  6.88%     - 1065s
     0     0 -233.29977    0  737 -250.54959 -233.29977  6.88%     - 1085s
     0     0 -233.41315    0  897 -250.54959 -233.41315  6.84%     - 1106s
     0     0 -233.57189    0  890 -250.54959 -233.57189  6.78%     - 1131s
     0     0 -233.65717    0  897 -250.54959 -233.65717  6.74%     - 1146s
     0     0 -233.65755    0  895 -250.54959 -233.65755  6.74%     - 1158s
     0     0 -234.05660    0  611 -250.54959 -234.05660  6.58%     - 1187s
     0     0 -234.35951    0  951 -250.54959 -234.35951  6.46%     - 1207s
     0     0 -234.35951    0  963 -250.54959 -234.35951  6.46%     - 1219s
     0     0 -235.78844    0  928 -250.54959 -235.78844  5.89%     - 1246s
     0     0 -235.78865    0  992 -250.54959 -235.78865  5.89%     - 1266s
     0     0 -235.94182    0  903 -250.54959 -235.94182  5.83%     - 1289s
     0     0 -235.94182    0  858 -250.54959 -235.94182  5.83%     - 1306s
     0     0 -235.94182    0  905 -250.54959 -235.94182  5.83%     - 1327s
     0     0 -236.25891    0  905 -250.54959 -236.25891  5.70%     - 1352s
     0     0 -236.25891    0  858 -250.54959 -236.25891  5.70%     - 1365s
     0     0 -236.25891    0  853 -250.54959 -236.25891  5.70%     - 1518s
     0     0 -236.25891    0  874 -250.54959 -236.25891  5.70%     - 1537s
     0     0 -236.25891    0  877 -250.54959 -236.25891  5.70%     - 1558s
     0     0 -236.25891    0  874 -250.54959 -236.25891  5.70%     - 1574s
     0     0 -236.57600    0  880 -250.54959 -236.57600  5.58%     - 1661s
     0     0 -236.81382    0  867 -250.54959 -236.81382  5.48%     - 1684s
     0     0 -236.89310    0  860 -250.54959 -236.89310  5.45%     - 1697s
     0     0 -236.89310    0  864 -250.54959 -236.89310  5.45%     - 1705s
     0     0 -236.89310    0  874 -250.54959 -236.89310  5.45%     - 1725s
     0     0 -236.89310    0  874 -250.54959 -236.89310  5.45%     - 1740s
     0     0 -236.89310    0  874 -250.54959 -236.89310  5.45%     - 1755s
     0     0 -236.89310    0  873 -250.54959 -236.89310  5.45%     - 1769s
     0     0 -237.73868    0  858 -250.54959 -237.73868  5.11%     - 1865s
     0     0 -237.73868    0  836 -250.54959 -237.73868  5.11%     - 1880s
     0     0 -237.73868    0  848 -250.54959 -237.73868  5.11%     - 1899s
     0     0 -237.73868    0  849 -250.54959 -237.73868  5.11%     - 1916s
     0     0 -237.73868    0  764 -250.54959 -237.73868  5.11%     - 1973s
     0     0 -237.73868    0  808 -250.54959 -237.73868  5.11%     - 1987s
     0     0 -237.73868    0  853 -250.54959 -237.73868  5.11%     - 2045s
     0     0 -237.73868    0  853 -250.54959 -237.73868  5.11%     - 2068s
     0     2 -237.73907    0  851 -250.54959 -237.73907  5.11%     - 2196s
     1     3 -240.14116    1  791 -250.54959 -237.73907  5.11%  1904 2212s
     2     4 -240.39670    2  795 -250.54959 -237.73907  5.11%  1052 2216s
     3     5 -245.23522    2  667 -250.54959 -237.73907  5.11%   907 2225s
     5     5     cutoff    3      -250.54959 -237.73907  5.11%   609 2230s
     8     6 -250.11844    5  605 -250.54959 -237.73907  5.11%   440 2236s
    12     4 -237.74210    1  856 -250.54959 -237.74210  5.11%   320 2242s
    13     5 -238.86613    2  709 -250.54959 -237.74266  5.11%   475 2259s
    14     6 -237.99286    2  843 -250.54959 -237.99286  5.01%   469 2265s
    15     7 -239.92531    3  642 -250.54959 -238.02371  5.00%   489 2275s
    16     8 -240.55756    4  793 -250.54959 -238.02371  5.00%   492 2286s
    17     7     cutoff    4      -250.54959 -238.02371  5.00%   972 2395s
    18     8 -241.03514    5  642 -250.54959 -238.02371  5.00%   933 2400s
    20    10 -242.14496    7  640 -250.54959 -238.02371  5.00%   854 2406s
    21    11 -247.69408    7  503 -250.54959 -238.02371  5.00%   841 2415s
    22    12 -248.80390    8  479 -250.54959 -238.02371  5.00%   817 2421s
    24    14 -250.09870   10  373 -250.54959 -238.02371  5.00%   763 2428s
    26    12     cutoff   11      -250.54959 -238.02371  5.00%   713 2430s
    28    12 -249.91373    9  409 -250.54959 -238.02371  5.00%   671 2435s
    31    11     cutoff   11      -250.54959 -238.02371  5.00%   626 2441s
    33    11 -239.44445    3  746 -250.54959 -238.86622  4.66%   682 2464s
    34    12 -240.36817    4  663 -250.54959 -238.86622  4.66%   678 2470s
    35    13 -245.47335    5  534 -250.54959 -238.86622  4.66%   674 2478s
    36    14 -246.58318    6  518 -250.54959 -238.86622  4.66%   660 2482s
    37    15 -247.69300    7  514 -250.54959 -238.86622  4.66%   651 2488s
    38    14     cutoff    7      -250.54959 -238.86622  4.66%   654 2496s
    39    15 -248.80282    8  484 -250.54959 -238.86622  4.66%   645 2503s
    40    14     cutoff    8      -250.54959 -238.86622  4.66%   650 2510s
    42    14     cutoff    9      -250.54959 -238.86622  4.66%   628 2515s
    45    13 -238.86667    3  732 -250.54959 -238.86651  4.66%   596 2520s
    46    14 -246.56867    4  666 -250.54959 -238.86651  4.66%   661 2551s
    47    15 -246.79064    5  649 -250.54959 -238.86651  4.66%   653 2555s
    49    15 -247.45653    6  637 -250.54959 -238.86651  4.66%   646 2565s
    50    16 -250.12011    7  587 -250.54959 -238.86651  4.66%   640 2571s
    53    13     cutoff    8      -250.54959 -238.86651  4.66%   610 2575s
    55    13 -244.34795    3  675 -250.54959 -238.86943  4.66%   634 2595s
    56    14 -247.01152    4  668 -250.54959 -238.86943  4.66%   643 2607s
    57    15 -247.89938    5  667 -250.54959 -238.86943  4.66%   637 2612s
    58    14     cutoff    6      -250.54959 -238.86943  4.66%   635 2616s
    60    12     cutoff    5      -250.54959 -238.86943  4.66%   629 2624s
    61    13 -249.67510    4  624 -250.54959 -238.86943  4.66%   628 2632s
    63    13 -250.11903    5  625 -250.54959 -238.86943  4.66%   615 2636s
    67    11     cutoff    7      -250.54959 -238.86943  4.66%   582 2640s
    68    12 -240.71435    4  756 -250.54959 -239.44460  4.43%   617 2660s
    70    14 -241.73826    6  675 -250.54959 -239.44460  4.43%   613 2674s
    71    15 -247.59006    6  468 -250.54959 -239.44460  4.43%   624 2691s
    73    17 -247.77503    8  371 -250.54959 -239.44460  4.43%   611 2696s
    75    17 -248.32994    9  372 -250.54959 -239.44460  4.43%   602 2705s
    77    17 -248.88485   10  325 -250.54959 -239.44460  4.43%   594 2713s
    78    16     cutoff   10      -250.54959 -239.44460  4.43%   589 2715s
    80    16     cutoff   12      -250.54959 -239.44460  4.43%   578 2720s
    83    15 -242.53548    4  733 -250.54959 -240.37270  4.06%   597 2749s
    84    16 -242.53592    5  745 -250.54959 -240.37270  4.06%   592 2752s
    86    18 -242.65495    7 1208 -250.54959 -240.37270  4.06%   585 2763s
    87    19 -243.25451    8 1240 -250.54959 -240.37270  4.06%   584 2769s
    88    20 -243.93257    9 1175 -250.54959 -240.37270  4.06%   587 2777s
    89    21 -245.33834   10  796 -250.54959 -240.37270  4.06%   589 2785s
    90    22 -245.48779   11  732 -250.54959 -240.37270  4.06%   587 2790s
    91    23 -245.76203   12  738 -250.54959 -240.37270  4.06%   584 2795s
    93    25 -246.14046   14  750 -250.54959 -240.37270  4.06%   579 2805s
    96    28 -246.17429   17  768 -250.54959 -240.37270  4.06%   564 2811s
    97    29 -247.98340   18  769 -250.54959 -240.37270  4.06%   562 2817s
    98    30 -248.47347   19  763 -250.54959 -240.37270  4.06%   560 2822s
    99    31 -249.35088   20  773 -250.54959 -240.37270  4.06%   557 2825s
   103    30 -249.88448   20  614 -250.54959 -240.37270  4.06%   539 2832s
   104    31 -250.32841   21  631 -250.54959 -240.37270  4.06%   535 2836s
   108    28 -250.15167   19  810 -250.54959 -240.37270  4.06%   519 2841s
   110    28 -246.45167   18  660 -250.54959 -240.37270  4.06%   511 2846s
   112    30 -250.22507   20  603 -250.54959 -240.37270  4.06%   506 2851s
   116    28 -250.33605   19  605 -250.54959 -240.37270  4.06%   494 2861s
   119    27 -247.82839   17  719 -250.54959 -240.37270  4.06%   491 2868s
   120    26     cutoff   18      -250.54959 -240.37270  4.06%   490 2871s
   122    26 -241.58897    5  636 -250.54959 -240.39706  4.05%   502 2884s
   123    27 -241.58897    6  665 -250.54959 -240.39706  4.05%   499 2886s
   124    28 -242.69880    7  624 -250.54959 -240.39706  4.05%   502 2896s
   126    30 -244.36353    9  555 -250.54959 -240.39706  4.05%   498 2903s
   128    32 -244.91844   11  588 -250.54959 -240.39706  4.05%   492 2908s
   129    33 -245.47335   12  583 -250.54959 -240.39706  4.05%   490 2913s
   130    34 -247.69300   13  412 -250.54959 -240.39706  4.05%   489 2918s
   131    35 -247.87797   14  374 -250.54959 -240.39706  4.05%   488 2923s
   132    36 -248.43288   15  372 -250.54959 -240.39706  4.05%   485 2926s
   133    37 -248.98780   16  326 -250.54959 -240.39706  4.05%   483 2930s
   135    37     cutoff   18      -250.54959 -240.39706  4.05%   478 2935s
   139    35 -240.40579    3  774 -250.54959 -240.40579  4.05%   470 2942s
   140    36 -245.78317    4  627 -250.54959 -240.40579  4.05%   476 2953s
   141    35     cutoff    5      -250.54959 -240.40579  4.05%   473 2955s
   142    36 -250.22246    5  617 -250.54959 -240.40579  4.05%   481 2965s
   145    35 -241.03347    4  663 -250.54959 -240.42614  4.04%   475 2971s
   147    37 -241.77335    6  617 -250.54959 -240.42614  4.04%   470 2975s
   149    39 -246.21265    8  559 -250.54959 -240.42614  4.04%   472 2989s
   150    40 -246.58259    9  531 -250.54959 -240.42614  4.04%   470 2992s
   152    42 -247.69241   11  497 -250.54959 -240.42614  4.04%   465 2998s
   154    44 -248.43230   13  512 -250.54959 -240.42614  4.04%   461 3001s
   157    47 -250.28200   16  371 -250.54959 -240.42614  4.04%   454 3006s
   162    44 -243.56244    3  636 -250.54959 -240.60697  3.97%   450 3016s
   163    45 -249.90429    4  599 -250.54959 -240.60697  3.97%   456 3029s
   164    44     cutoff    5      -250.54959 -240.60697  3.97%   454 3030s
   166    44 -248.00174    4  629 -250.54959 -240.60697  3.97%   460 3045s
   167    45 -248.74162    5  641 -250.54959 -240.60697  3.97%   459 3050s
   169    47 -250.22138    7  583 -250.54959 -240.60697  3.97%   456 3055s
   174    44 -244.29674    5  696 -250.54959 -240.74207  3.91%   486 3112s
   175    45 -244.67393    6  646 -250.54959 -240.74207  3.91%   486 3119s
   176    44     cutoff    7      -250.54959 -240.74207  3.91%   488 3126s
   177    45 -249.11323    7  664 -250.54959 -240.74207  3.91%   497 3152s
   178    46 -250.22305    8  617 -250.54959 -240.74207  3.91%   497 3158s
   180    46     cutoff    9      -250.54959 -240.74207  3.91%   493 3161s
   184    44 -246.26863    5  749 -250.54959 -241.03347  3.80%   521 3231s
   185    45 -248.47511    6  687 -250.54959 -241.03347  3.80%   526 3246s
   187    43     cutoff    7      -250.54959 -241.03347  3.80%   523 3250s
   189    45 -248.00036    7  686 -250.54959 -241.03347  3.80%   522 3264s
   190    44     cutoff    8      -250.54959 -241.03347  3.80%   524 3271s
   192    44 -246.26917    7  724 -250.54959 -241.03347  3.80%   520 3275s
   193    45 -248.10625    8  651 -250.54959 -241.03347  3.80%   523 3287s
   196    44 -246.32356    8 1153 -250.54959 -241.03347  3.80%   519 3292s
   197    45 -248.93304    9  678 -250.54959 -241.03347  3.80%   519 3298s
   198    46 -249.84556   10  674 -250.54959 -241.03347  3.80%   518 3302s
   201    43     cutoff   10      -250.54959 -241.03347  3.80%   512 3305s
   202    44 -246.85857    9 1177 -250.54959 -241.03347  3.80%   513 3310s
   203    45 -249.09223   10  820 -250.54959 -241.03347  3.80%   515 3322s
   205    45 -249.29964   11  753 -250.54959 -241.03347  3.80%   512 3326s
   207    47 -249.51370   13  678 -250.54959 -241.03347  3.80%   508 3330s
   208    48 -250.18482   14  674 -250.54959 -241.03347  3.80%   508 3338s
   211    45     cutoff   14      -250.54959 -241.03347  3.80%   504 3341s
   215    45 -243.49388    5  752 -250.54959 -241.03347  3.80%   500 3352s
   216    44     cutoff    6      -250.54959 -241.03347  3.80%   500 3357s
   217    43     cutoff    6      -250.54959 -241.03347  3.80%   506 3371s
   218    44 -247.26182    6  799 -250.54959 -241.03514  3.80%   521 3398s
   219    45 -249.91206    7  535 -250.54959 -241.03514  3.80%   523 3407s
   221    47 -250.09703    9  374 -250.54959 -241.03514  3.80%   519 3410s
   226    42     cutoff    6      -250.54959 -241.58897  3.58%   516 3423s
   227    43 -244.23435    6  760 -250.54959 -241.58897  3.58%   525 3439s
   228    42     cutoff    7      -250.54959 -241.58897  3.58%   534 3457s
   229    41     cutoff    7      -250.54959 -241.58897  3.58%   534 3463s
   230    42 -247.90223    7  833 -250.54959 -241.73826  3.52%   553 3500s
   231    41     cutoff    8      -250.54959 -241.73826  3.52%   553 3505s
   233    41 -242.51658    7  673 -250.54959 -241.76944  3.50%   552 3514s
   234    42 -243.54713    8  670 -250.54959 -241.76944  3.50%   553 3523s
   235    43 -243.98313    9  669 -250.54959 -241.76944  3.50%   552 3526s
   236    44 -244.81550   10  657 -250.54959 -241.76944  3.50%   550 3531s
   237    45 -245.52896   11  660 -250.54959 -241.76944  3.50%   550 3535s
   239    47 -247.08271   13  654 -250.54959 -241.76944  3.50%   548 3543s
   240    48 -247.38827   14  648 -250.54959 -241.76944  3.50%   546 3545s
   242    50 -248.32994   16  655 -250.54959 -241.76944  3.50%   544 3550s
   244    52 -250.08716   18  599 -250.54959 -241.76944  3.50%   542 3557s
   248    48     cutoff   17      -250.54959 -241.76944  3.50%   536 3561s
   249    47     cutoff    7      -250.54959 -241.77944  3.50%   544 3575s
   251    47 -243.25479    8  617 -250.54959 -242.14877  3.35%   543 3585s
   253    49 -247.25015   10  581 -250.54959 -242.14877  3.35%   541 3592s
   255    51 -247.69408   12  580 -250.54959 -242.14877  3.35%   538 3595s
   258    52 -249.91373   14  536 -250.54959 -242.14877  3.35%   533 3602s
   261    49     cutoff   13      -250.54959 -242.14877  3.35%   529 3608s
   262    48     cutoff    8      -250.54959 -242.51658  3.21%   530 3614s
   263    47     cutoff    8      -250.54959 -242.53563  3.20%   535 3626s
   264    48 -245.30920    5  699 -250.54959 -242.53651  3.20%   543 3639s
   265    49 -249.61266    6  735 -250.54959 -242.53651  3.20%   548 3653s
   266    50 -249.74850    7  648 -250.54959 -242.53651  3.20%   547 3655s
   268    50     cutoff    9      -250.54959 -242.53651  3.20%   544 3660s
   272    48 -244.27815    6  676 -250.54959 -242.53671  3.20%   541 3672s
   273    49 -247.36581    7  796 -250.54959 -242.53671  3.20%   542 3681s
   275    47     cutoff    8      -250.54959 -242.53671  3.20%   543 3687s
   276    48 -245.01413    7  674 -250.54959 -242.53671  3.20%   542 3690s
   278    50 -248.14630    9  629 -250.54959 -242.53671  3.20%   545 3702s
   279    49     cutoff   10      -250.54959 -242.53671  3.20%   544 3705s
   281    51 -249.67539   11  632 -250.54959 -242.53671  3.20%   542 3710s
   285    49 -244.57040    7  683 -250.54959 -242.57582  3.18%   539 3721s
   286    50 -245.68022    8  685 -250.54959 -242.57582  3.18%   540 3727s
   287    49     cutoff    9      -250.54959 -242.57582  3.18%   540 3731s
   288    50 -246.79005    9  683 -250.54959 -242.57582  3.18%   540 3735s
   290    50     cutoff   11      -250.54959 -242.57582  3.18%   541 3745s
   292    50 -247.89987   11  670 -250.54959 -242.57582  3.18%   540 3753s
   293    51 -249.00969   12  670 -250.54959 -242.57582  3.18%   540 3758s
   295    51 -249.00969   13  628 -250.54959 -242.57582  3.18%   537 3760s
   298    50 -249.00969   14  610 -250.54959 -242.57582  3.18%   533 3765s
   302    48     cutoff   16      -250.54959 -242.57582  3.18%   527 3771s
   303    49 -245.47277    8  578 -250.54959 -242.69880  3.13%   527 3777s
   305    51 -246.58259   10  571 -250.54959 -242.69880  3.13%   525 3785s
   307    53 -248.24732   12  545 -250.54959 -242.69880  3.13%   523 3793s
   308    54 -248.80224   13  516 -250.54959 -242.69880  3.13%   522 3797s
   310    56 -249.91206   15  515 -250.54959 -242.69880  3.13%   519 3800s
   315    53 -244.62163    8  714 -250.54959 -242.73140  3.12%   516 3814s
   316    54 -249.91265    9  412 -250.54959 -242.73140  3.12%   516 3824s
   317    55 -250.09762   10  373 -250.54959 -242.73140  3.12%   515 3827s
   320    52     cutoff   10      -250.54959 -242.73140  3.12%   511 3830s
   321    53 -248.43126    9  735 -250.54959 -242.73140  3.12%   515 3845s
   323    51     cutoff   10      -250.54959 -242.73140  3.12%   514 3853s
   324    52 -245.28868    8  690 -250.54959 -243.25898  2.91%   516 3864s
   325    53 -248.06949    9  788 -250.54959 -243.25898  2.91%   517 3873s
   326    52     cutoff   10      -250.54959 -243.25898  2.91%   516 3876s
   327    51     cutoff   10      -250.54959 -243.25898  2.91%   516 3883s
   328    52 -246.38370    9  669 -250.54959 -243.25898  2.91%   516 3887s
   329    53 -246.75364   10  672 -250.54959 -243.25898  2.91%   515 3891s
   331    55 -247.86347   12  663 -250.54959 -243.25898  2.91%   513 3897s
   332    56 -248.97329   13  665 -250.54959 -243.25898  2.91%   512 3902s
   334    58 -250.08311   15  602 -250.54959 -243.25898  2.91%   509 3908s
   335    59 -250.36057   16  608 -250.54959 -243.25898  2.91%   508 3910s
   340    56 -249.33986    9 1251 -250.54959 -243.26322  2.91%   506 3923s
   342    54     cutoff   10      -250.54959 -243.26322  2.91%   504 3925s
   343    55 -246.58426    9  575 -250.54959 -243.28629  2.90%   504 3932s
   345    57 -247.69408   11  565 -250.54959 -243.28629  2.90%   502 3939s
   346    58 -247.69408   12  574 -250.54959 -243.28629  2.90%   501 3941s
   347    59 -248.80390   13  572 -250.54959 -243.28629  2.90%   500 3945s
   349    61 -249.91373   15  512 -250.54959 -243.28629  2.90%   498 3950s
   354    56     cutoff    9      -250.54959 -243.54713  2.79%   494 3960s
   355    55     cutoff    9      -250.54959 -243.98001  2.62%   496 3968s
   356    56 -250.28697   10  742 -250.54959 -244.08540  2.58%   496 3974s
   358    54     cutoff   11      -250.54959 -244.08540  2.58%   493 3975s
   359    53     cutoff   10      -250.54959 -244.31180  2.49%   494 3983s
   360    54 -246.94326    6 1166 -250.54959 -244.36353  2.47%   498 3998s
   361    55 -249.65363    7  658 -250.54959 -244.36353  2.47%   498 4004s
   362    54     cutoff    8      -250.54959 -244.36353  2.47%   497 4005s
   365    55 -247.46975    8  794 -250.54959 -244.36353  2.47%   495 4012s
   366    56 -248.21008    9  621 -250.54959 -244.36353  2.47%   494 4017s
   369    55 -247.46985    9  752 -250.54959 -244.36353  2.47%   491 4020s
   370    56 -248.94908   10  674 -250.54959 -244.36353  2.47%   491 4025s
   373    55 -248.63125   10  830 -250.54959 -244.36353  2.47%   490 4033s
   374    56 -249.32010   11  655 -250.54959 -244.36353  2.47%   489 4035s
   378    54 -246.89221   11  708 -250.54959 -244.36353  2.47%   488 4047s
   379    53     cutoff   12      -250.54959 -244.36353  2.47%   487 4050s
   381    53 -246.61490   10  712 -250.54959 -244.57040  2.39%   488 4059s
   382    52     cutoff   11      -250.54959 -244.57040  2.39%   488 4061s
   383    51     cutoff   11      -250.54959 -244.57040  2.39%   489 4066s
   385    49     cutoff   11      -250.54959 -245.04215  2.20%   489 4081s
   386    48     cutoff    8      -250.54959 -245.26452  2.11%   490 4089s
   387    47     cutoff   12      -250.54959 -245.34877  2.08%   491 4094s
   388    48 -249.00862    6  651 -250.54959 -245.43023  2.04%   499 4120s
   389    49 -250.11844    7  645 -250.54959 -245.43023  2.04%   499 4125s
   393    47     cutoff    8      -250.54959 -245.43023  2.04%   495 4130s
   395    47 -247.63180   11  672 -250.54959 -245.44606  2.04%   496 4139s
   396    46     cutoff   12      -250.54959 -245.44606  2.04%   495 4142s
   398    46 -249.91557    9  715 -250.54959 -245.47277  2.03%   495 4152s
   400    48 -250.11932   11  578 -250.54959 -245.47277  2.03%   493 4155s
   405    45 -248.50532    9  705 -250.54959 -245.47277  2.03%   490 4166s
   408    44 -249.66633   10  707 -250.54959 -245.47335  2.03%   489 4178s
   410    42     cutoff   11      -250.54959 -245.47335  2.03%   488 4180s
   411    43 -245.82451   13  668 -250.54959 -245.47846  2.02%   488 4185s
   412    44 -246.02827   14  594 -250.54959 -245.47846  2.02%   487 4190s
   415    47 -247.69300   17  584 -250.54959 -245.47846  2.02%   484 4196s
   417    49 -248.13693   19  551 -250.54959 -245.47846  2.02%   483 4202s
   418    50 -249.91265   20  415 -250.54959 -245.47846  2.02%   482 4205s
   422    48     cutoff   21      -250.54959 -245.47846  2.02%   478 4210s
   424    48     cutoff   21      -250.54959 -245.47846  2.02%   478 4215s
   427    47     cutoff   22      -250.54959 -245.47846  2.02%   475 4220s
   428    46     cutoff    6      -250.54959 -245.52994  2.00%   475 4227s
   429    45     cutoff   12      -250.54959 -245.53231  2.00%   475 4232s
   430    46 -246.43297   12  691 -250.54959 -245.77072  1.91%   476 4238s
   431    47 -249.66677   13  633 -250.54959 -245.77072  1.91%   477 4246s
   434    44     cutoff   13      -250.54959 -245.77072  1.91%   475 4254s
   435    45 -245.95130   13  739 -250.54959 -245.82627  1.89%   475 4259s
   436    46 -248.98852   14  666 -250.54959 -245.82627  1.89%   475 4265s
   437    47 -249.54343   14  683 -250.54959 -245.82627  1.89%   475 4271s
   438    48 -250.00586   15  672 -250.54959 -245.82627  1.89%   474 4275s
   441    45     cutoff   15      -250.54959 -245.82627  1.89%   473 4280s
   444    44 -249.04407   14  484 -250.54959 -245.82753  1.88%   471 4286s
   448    42     cutoff   15      -250.54959 -245.82753  1.88%   467 4290s
   450    40     cutoff   15      -250.54959 -246.15014  1.76%   467 4298s
   451    41 -249.09247   16  699 -250.54959 -246.15051  1.76%   468 4305s
   454    39 -250.32502   15  699 -250.54959 -246.21785  1.73%   468 4314s
   455    38     cutoff   16      -250.54959 -246.21785  1.73%   468 4315s
   456    39 -249.31288    9  680 -250.54959 -246.36229  1.67%   469 4323s
   458    37     cutoff   10      -250.54959 -246.36229  1.67%   467 4325s
   460    35     cutoff   13      -250.54959 -246.38370  1.66%   466 4333s
   461    34     cutoff   10      -250.54959 -246.58259  1.58%   466 4336s
   462    33     cutoff   11      -250.54959 -246.58259  1.58%   467 4342s
   463    34 -248.60429   10  681 -250.54959 -246.58318  1.58%   467 4350s
   466    31     cutoff   16      -250.54959 -246.58318  1.58%   467 4360s
   467    30     cutoff   17      -250.54959 -246.58426  1.58%   467 4365s
   469    28     cutoff   11      -250.54959 -246.75901  1.51%   466 4373s
   470    27     cutoff   11      -250.54959 -246.88678  1.46%   466 4376s
   472    25     cutoff   11      -250.54959 -247.08271  1.38%   465 4380s
   474    23     cutoff   11      -250.54959 -247.25015  1.32%   465 4387s
   475    22     cutoff   12      -250.54959 -247.32106  1.29%   464 4390s
   476    21     cutoff    7      -250.54959 -247.43483  1.24%   476 4434s
   477    20     cutoff   15      -250.54959 -247.44651  1.24%   476 4437s
   478    19     cutoff   12      -250.54959 -247.46436  1.23%   476 4442s
   479    18     cutoff    8      -250.54959 -247.59006  1.18%   475 4446s
   481    18 -247.69241   12  410 -250.54959 -247.69241  1.14%   474 4452s
   482    19 -248.06235   13  377 -250.54959 -247.69241  1.14%   473 4457s
   483    20 -248.98721   14  378 -250.54959 -247.69241  1.14%   473 4462s
   485    22 -250.09703   16  274 -250.54959 -247.69241  1.14%   472 4466s
   489    22     cutoff   19      -250.54959 -247.69241  1.14%   468 4470s
   492    19     cutoff   13      -250.54959 -247.69241  1.14%   466 4475s
   494    19 -250.17016   12  617 -250.54959 -247.69300  1.14%   466 4486s
   497    16     cutoff   14      -250.54959 -247.69300  1.14%   465 4490s
   499    14     cutoff   18      -250.54959 -247.69408  1.14%   465 4497s
   501    12     cutoff   12      -250.54959 -247.69408  1.14%   464 4502s
   502    11     cutoff   13      -250.54959 -247.86347  1.07%   464 4506s
   504     9     cutoff   15      -250.54959 -248.00174  1.02%   464 4514s
   505     8     cutoff    5      -250.54959 -248.06235  0.99%   463 4517s
   506     7     cutoff   14      -250.54959 -248.14497  0.96%   464 4525s
   508     7 -249.91206   13  416 -250.54959 -248.45431  0.84%   463 4533s
   509     8 -250.09703   14  376 -250.54959 -248.45431  0.84%   463 4536s
   513     6 -249.91206   14  409 -250.54959 -248.97329  0.63%   460 4542s
   516     5     cutoff   16      -250.54959 -248.97329  0.63%   458 4545s
   521     0     cutoff   12      -250.54959 -250.54959  0.00%   456 4552s

Cutting planes:
  Gomory: 1
  Zero half: 396

Explored 522 nodes (312737 simplex iterations) in 4553.46 seconds
Thread count was 1 (of 80 available processors)

Solution count 6: -250.55 -259.531 -266.189 ... -14602.6

Optimal solution found (tolerance 1.00e-04)
Best objective -2.505495857795e+02, best bound -2.505495857795e+02, gap 0.0000%
